<number of tasks>
50

<cycle time>
1000

<order strength>
0.199


<task times>
1 185
2 102
3 102
4 172
5 48
6 154
7 148
8 223
9 162
10 69
11 54
12 85
13 22
14 120
15 88
16 245
17 104
18 82
19 260
20 235
21 55
22 50
23 156
24 169
25 235
26 87
27 146
28 102
29 107
30 96
31 169
32 161
33 105
34 100
35 183
36 217
37 32
38 158
39 80
40 117
41 162
42 62
43 239
44 207
45 106
46 28
47 96
48 70
49 207
50 121

<precedence relations>
1,10
2,9
2,34
3,49
4,33
5,11
5,40
6,43
6,50
7,17
8,11
9,13
10,12
11,14
11,15
11,16
11,17
11,18
11,19
11,45
12,21
13,23
14,24
15,20
15,22
15,25
19,33
19,34
19,39
19,49
20,26
21,27
22,28
23,32
24,30
25,29
25,31
25,33
25,34
26,39
27,37
28,39
29,35
30,36
31,38
32,40
33,46
34,46
35,41
36,43
37,42
38,44
39,43
40,45
41,46
42,46
44,48
44,50
45,47
45,48
45,49

<end>
